data;

set A := 350670659 904950680 919492162 981744014 564570543 280346525 927639974 384238055 946429594 372859068 136004910 414883596 388337075 310494054 898244415 268212652 708449382 625836886 930726296 794533983 556933911 200853711 344539794 832172262 469537379 893170146 215613538 716795758;
param T := 7000000000;

end;
